c AI planning file sortnetsort6.AE.stepl.003.qcnf (Jussi.Rintanen@NICTA.com.au)
p cnf 937 1572 
a 29 30 31 32 33 34 35 36 37 38 39 40 41 42 43 44 45 46 47 48 49 50 51 52 53 54 55 56 57 58 59 60 61 62 63 64 65 66 67 68 69 70 71 72 73 74 75 76 77 78 79 80 81 82 83 84 85 86 87 88 89 90 91 92 93 94 95 96 97 98 99 100 101 102 103 104 105 106 107 108 109 110 111 112 113 798 799 800 801 802 803 804 805 806 807 808 809 810 811 812 813 814 815 816 817 818 819 820 821 822 823 824 825 826 827 828 829 830 831 832 833 834 835 836 837 868 869 870 871 872 873 874 875 876 877 878 879 880 881 882 883 884 885 886 887 888 889 890 891 892 893 894 895 896 897 898 899 900 901 902 903 904 905 906 907 0
e 1 2 3 4 5 6 7 8 9 10 11 12 13 14 15 16 17 18 19 20 21 22 23 24 25 26 27 28 114 115 116 117 118 119 120 121 122 123 124 125 126 127 128 129 130 131 132 133 134 135 136 137 138 139 140 141 142 143 144 145 146 147 148 149 150 151 152 153 154 155 156 157 158 159 160 161 162 163 164 165 166 167 168 169 170 171 172 173 174 175 176 177 178 179 180 181 182 183 184 185 186 187 188 189 190 191 192 193 194 195 196 197 198 199 200 201 202 203 204 205 206 207 208 209 210 211 212 213 214 215 216 217 218 219 220 221 222 223 224 225 226 227 228 229 230 231 232 233 234 235 236 237 238 239 240 241 242 243 244 245 246 247 248 249 250 251 252 253 254 255 256 257 258 259 260 261 262 263 264 265 266 267 268 269 270 271 272 273 274 275 276 277 278 279 280 281 282 283 284 285 286 287 288 289 290 291 292 293 294 295 296 297 298 299 300 301 302 303 304 305 306 307 308 309 310 311 312 313 314 315 316 317 318 319 320 321 322 323 324 325 326 327 328 329 330 331 332 333 334 335 336 337 338 339 340 341 342 343 344 345 346 347 348 349 350 351 352 353 354 355 356 357 358 359 360 361 362 363 364 365 366 367 368 369 370 371 372 373 374 375 376 377 378 379 380 381 382 383 384 385 386 387 388 389 390 391 392 393 394 395 396 397 398 399 400 401 402 403 404 405 406 407 408 409 410 411 412 413 414 415 416 417 418 419 420 421 422 423 424 425 426 427 428 429 430 431 432 433 434 435 436 437 438 439 440 441 442 443 444 445 446 447 448 449 450 451 452 453 454 455 456 457 458 459 460 461 462 463 464 465 466 467 468 469 470 471 472 473 474 475 476 477 478 479 480 481 482 483 484 485 486 487 488 489 490 491 492 493 494 495 496 497 498 499 500 501 502 503 504 505 506 507 508 509 510 511 512 513 514 515 516 517 518 519 520 521 522 523 524 525 526 527 528 529 530 531 532 533 534 535 536 537 538 539 540 541 542 543 544 545 546 547 548 549 550 551 552 553 554 555 556 557 558 559 560 561 562 563 564 565 566 567 568 569 570 571 572 573 574 575 576 577 578 579 580 581 582 583 584 585 586 587 588 589 590 591 592 593 594 595 596 597 598 599 600 601 602 603 604 605 606 607 608 609 610 611 612 613 614 615 616 617 618 619 620 621 622 623 624 625 626 627 628 629 630 631 632 633 634 635 636 637 638 639 640 641 642 643 644 645 646 647 648 649 650 651 652 653 654 655 656 657 658 659 660 661 662 663 664 665 666 667 668 669 670 671 672 673 674 675 676 677 678 679 680 681 682 683 684 685 686 687 688 689 690 691 692 693 694 695 696 697 698 699 700 701 702 703 704 705 706 707 708 709 710 711 712 713 714 715 716 717 718 719 720 721 722 723 724 725 726 727 728 729 730 731 732 733 734 735 736 737 738 739 740 741 742 743 744 745 746 747 748 749 750 751 752 753 754 755 756 757 758 759 760 761 762 763 764 765 766 767 768 769 770 771 772 773 774 775 776 777 778 779 780 781 782 783 784 785 786 787 788 789 790 791 792 793 794 795 796 797 838 839 840 841 842 843 844 845 846 847 848 849 850 851 852 853 854 855 856 857 858 859 860 861 862 863 864 865 866 867 908 909 910 911 912 913 914 915 916 917 918 919 920 921 922 923 924 925 926 927 928 929 930 931 932 933 934 935 936 937 0
377 378 379 380 381 382 383 384 385 386 387 388 389 390 391 392 393 394 395 396 397 398 399 400 401 402 403 404 405 406 407 408 409 410 411 412 413 414 415 416 417 418 419 420 421 422 423 424 425 426 427 428 429 430 431 432 433 434 435 436 437 438 439 440 441 442 443 444 445 446 447 448 449 450 451 452 453 454 455 456 457 458 459 460 461 462 463 464 465 466 467 468 469 470 471 472 473 474 475 476 477 478 479 480 481 482 483 484 485 486 487 488 489 490 491 492 493 494 495 496 497 498 499 500 501 502 503 504 505 506 507 508 509 510 511 512 513 514 515 516 517 518 519 520 521 522 523 524 525 526 527 528 529 530 531 532 533 534 535 536 537 538 539 540 541 542 543 544 545 546 547 548 549 550 551 552 553 554 555 556 557 558 559 560 561 562 563 564 565 566 567 568 569 570 571 572 573 574 575 576 577 578 579 580 581 582 583 584 585 586 587 588 589 590 591 592 593 594 595 596 597 598 599 600 601 602 603 604 605 606 607 608 609 610 611 612 613 614 615 616 617 618 619 620 621 622 623 624 625 626 627 628 629 630 631 632 633 634 635 636 637 638 639 640 641 642 643 644 645 646 647 648 649 650 651 652 653 654 655 656 657 658 659 660 661 662 663 664 665 666 667 668 669 670 671 672 673 674 675 676 677 678 679 680 681 682 683 684 685 686 687 688 689 690 691 692 693 694 695 696 697 698 699 700 701 702 703 704 705 706 707 708 709 710 711 712 713 714 715 716 717 718 719 720 721 722 723 724 725 726 727 728 729 730 731 732 733 734 735 736 737 738 739 740 741 742 743 744 745 746 747 748 749 750 751 752 753 754 755 756 757 758 759 760 761 762 763 764 765 766 767 768 769 770 771 772 773 774 775 776 777 778 779 780 781 782 783 784 785 786 787 788 789 790 791 792 793 794 795 796 797 0
-377 361 362 363 364 365 366 367 368 369 370 371 372 373 374 375 376 0
-378 92 0
-378 -93 0
-379 33 0
-379 -93 0
-380 92 0
-380 33 0
-381 91 0
-381 -92 0
-382 32 0
-382 -92 0
-383 91 0
-383 32 0
-384 90 0
-384 -91 0
-385 31 0
-385 -91 0
-386 90 0
-386 31 0
-387 29 0
-387 -90 0
-388 30 0
-388 -90 0
-389 29 0
-389 30 0
-390 88 0
-390 -89 0
-391 37 0
-391 -89 0
-392 88 0
-392 37 0
-393 87 0
-393 -88 0
-394 36 0
-394 -88 0
-395 87 0
-395 36 0
-396 34 0
-396 -87 0
-397 35 0
-397 -87 0
-398 34 0
-398 35 0
-399 29 0
-399 37 0
-400 29 0
-400 36 0
-401 29 0
-401 35 0
-402 29 0
-402 34 0
-403 85 0
-403 -86 0
-404 40 0
-404 -86 0
-405 85 0
-405 40 0
-406 38 0
-406 -85 0
-407 39 0
-407 -85 0
-408 38 0
-408 39 0
-409 84 0
-409 40 0
-410 84 0
-410 39 0
-411 84 0
-411 38 0
-412 30 0
-412 -84 0
-413 34 0
-413 -84 0
-414 30 0
-414 34 0
-415 41 0
-415 -83 0
-416 42 0
-416 -83 0
-417 41 0
-417 42 0
-418 82 0
-418 42 0
-419 82 0
-419 41 0
-420 81 0
-420 -82 0
-421 38 0
-421 -82 0
-422 81 0
-422 38 0
-423 31 0
-423 -81 0
-424 35 0
-424 -81 0
-425 31 0
-425 35 0
-426 80 0
-426 43 0
-427 79 0
-427 -80 0
-428 41 0
-428 -80 0
-429 79 0
-429 41 0
-430 78 0
-430 -79 0
-431 39 0
-431 -79 0
-432 78 0
-432 39 0
-433 32 0
-433 -78 0
-434 36 0
-434 -78 0
-435 32 0
-435 36 0
-436 76 0
-436 -77 0
-437 43 0
-437 -77 0
-438 76 0
-438 43 0
-439 75 0
-439 -76 0
-440 42 0
-440 -76 0
-441 75 0
-441 42 0
-442 74 0
-442 -75 0
-443 40 0
-443 -75 0
-444 74 0
-444 40 0
-445 33 0
-445 -74 0
-446 37 0
-446 -74 0
-447 33 0
-447 37 0
-448 112 0
-448 -113 0
-449 29 0
-449 -113 0
-450 112 0
-450 29 0
-451 111 0
-451 -112 0
-452 30 0
-452 -112 0
-453 111 0
-453 30 0
-454 110 0
-454 -111 0
-455 31 0
-455 -111 0
-456 110 0
-456 31 0
-457 33 0
-457 -110 0
-458 32 0
-458 -110 0
-459 33 0
-459 32 0
-460 109 0
-460 29 0
-461 108 0
-461 -109 0
-462 34 0
-462 -109 0
-463 108 0
-463 34 0
-464 107 0
-464 -108 0
-465 35 0
-465 -108 0
-466 107 0
-466 35 0
-467 37 0
-467 -107 0
-468 36 0
-468 -107 0
-469 37 0
-469 36 0
-470 106 0
-470 30 0
-471 106 0
-471 34 0
-472 105 0
-472 -106 0
-473 38 0
-473 -106 0
-474 105 0
-474 38 0
-475 40 0
-475 -105 0
-476 39 0
-476 -105 0
-477 40 0
-477 39 0
-478 34 0
-478 -104 0
-479 30 0
-479 -104 0
-480 34 0
-480 30 0
-481 103 0
-481 31 0
-482 103 0
-482 35 0
-483 103 0
-483 38 0
-484 42 0
-484 -103 0
-485 41 0
-485 -103 0
-486 42 0
-486 41 0
-487 101 0
-487 -102 0
-488 31 0
-488 -102 0
-489 101 0
-489 31 0
-490 38 0
-490 -101 0
-491 35 0
-491 -101 0
-492 38 0
-492 35 0
-493 43 0
-493 32 0
-494 43 0
-494 36 0
-495 43 0
-495 39 0
-496 43 0
-496 41 0
-497 99 0
-497 -100 0
-498 32 0
-498 -100 0
-499 99 0
-499 32 0
-500 98 0
-500 -99 0
-501 36 0
-501 -99 0
-502 98 0
-502 36 0
-503 41 0
-503 -98 0
-504 39 0
-504 -98 0
-505 41 0
-505 39 0
-506 96 0
-506 -97 0
-507 33 0
-507 -97 0
-508 96 0
-508 33 0
-509 95 0
-509 -96 0
-510 37 0
-510 -96 0
-511 95 0
-511 37 0
-512 94 0
-512 -95 0
-513 40 0
-513 -95 0
-514 94 0
-514 40 0
-515 43 0
-515 -94 0
-516 42 0
-516 -94 0
-517 43 0
-517 42 0
-518 816 0
-518 -817 0
-519 48 0
-519 -817 0
-520 816 0
-520 48 0
-521 815 0
-521 -816 0
-522 47 0
-522 -816 0
-523 815 0
-523 47 0
-524 814 0
-524 -815 0
-525 46 0
-525 -815 0
-526 814 0
-526 46 0
-527 44 0
-527 -814 0
-528 45 0
-528 -814 0
-529 44 0
-529 45 0
-530 812 0
-530 -813 0
-531 52 0
-531 -813 0
-532 812 0
-532 52 0
-533 811 0
-533 -812 0
-534 51 0
-534 -812 0
-535 811 0
-535 51 0
-536 49 0
-536 -811 0
-537 50 0
-537 -811 0
-538 49 0
-538 50 0
-539 44 0
-539 52 0
-540 44 0
-540 51 0
-541 44 0
-541 50 0
-542 44 0
-542 49 0
-543 809 0
-543 -810 0
-544 55 0
-544 -810 0
-545 809 0
-545 55 0
-546 53 0
-546 -809 0
-547 54 0
-547 -809 0
-548 53 0
-548 54 0
-549 808 0
-549 55 0
-550 808 0
-550 54 0
-551 808 0
-551 53 0
-552 45 0
-552 -808 0
-553 49 0
-553 -808 0
-554 45 0
-554 49 0
-555 56 0
-555 -807 0
-556 57 0
-556 -807 0
-557 56 0
-557 57 0
-558 806 0
-558 57 0
-559 806 0
-559 56 0
-560 805 0
-560 -806 0
-561 53 0
-561 -806 0
-562 805 0
-562 53 0
-563 46 0
-563 -805 0
-564 50 0
-564 -805 0
-565 46 0
-565 50 0
-566 804 0
-566 58 0
-567 803 0
-567 -804 0
-568 56 0
-568 -804 0
-569 803 0
-569 56 0
-570 802 0
-570 -803 0
-571 54 0
-571 -803 0
-572 802 0
-572 54 0
-573 47 0
-573 -802 0
-574 51 0
-574 -802 0
-575 47 0
-575 51 0
-576 800 0
-576 -801 0
-577 58 0
-577 -801 0
-578 800 0
-578 58 0
-579 799 0
-579 -800 0
-580 57 0
-580 -800 0
-581 799 0
-581 57 0
-582 798 0
-582 -799 0
-583 55 0
-583 -799 0
-584 798 0
-584 55 0
-585 48 0
-585 -798 0
-586 52 0
-586 -798 0
-587 48 0
-587 52 0
-588 836 0
-588 -837 0
-589 44 0
-589 -837 0
-590 836 0
-590 44 0
-591 835 0
-591 -836 0
-592 45 0
-592 -836 0
-593 835 0
-593 45 0
-594 834 0
-594 -835 0
-595 46 0
-595 -835 0
-596 834 0
-596 46 0
-597 48 0
-597 -834 0
-598 47 0
-598 -834 0
-599 48 0
-599 47 0
-600 833 0
-600 44 0
-601 832 0
-601 -833 0
-602 49 0
-602 -833 0
-603 832 0
-603 49 0
-604 831 0
-604 -832 0
-605 50 0
-605 -832 0
-606 831 0
-606 50 0
-607 52 0
-607 -831 0
-608 51 0
-608 -831 0
-609 52 0
-609 51 0
-610 830 0
-610 45 0
-611 830 0
-611 49 0
-612 829 0
-612 -830 0
-613 53 0
-613 -830 0
-614 829 0
-614 53 0
-615 55 0
-615 -829 0
-616 54 0
-616 -829 0
-617 55 0
-617 54 0
-618 49 0
-618 -828 0
-619 45 0
-619 -828 0
-620 49 0
-620 45 0
-621 827 0
-621 46 0
-622 827 0
-622 50 0
-623 827 0
-623 53 0
-624 57 0
-624 -827 0
-625 56 0
-625 -827 0
-626 57 0
-626 56 0
-627 825 0
-627 -826 0
-628 46 0
-628 -826 0
-629 825 0
-629 46 0
-630 53 0
-630 -825 0
-631 50 0
-631 -825 0
-632 53 0
-632 50 0
-633 58 0
-633 47 0
-634 58 0
-634 51 0
-635 58 0
-635 54 0
-636 58 0
-636 56 0
-637 823 0
-637 -824 0
-638 47 0
-638 -824 0
-639 823 0
-639 47 0
-640 822 0
-640 -823 0
-641 51 0
-641 -823 0
-642 822 0
-642 51 0
-643 56 0
-643 -822 0
-644 54 0
-644 -822 0
-645 56 0
-645 54 0
-646 820 0
-646 -821 0
-647 48 0
-647 -821 0
-648 820 0
-648 48 0
-649 819 0
-649 -820 0
-650 52 0
-650 -820 0
-651 819 0
-651 52 0
-652 818 0
-652 -819 0
-653 55 0
-653 -819 0
-654 818 0
-654 55 0
-655 58 0
-655 -818 0
-656 57 0
-656 -818 0
-657 58 0
-657 57 0
-658 886 0
-658 -887 0
-659 63 0
-659 -887 0
-660 886 0
-660 63 0
-661 885 0
-661 -886 0
-662 62 0
-662 -886 0
-663 885 0
-663 62 0
-664 884 0
-664 -885 0
-665 61 0
-665 -885 0
-666 884 0
-666 61 0
-667 59 0
-667 -884 0
-668 60 0
-668 -884 0
-669 59 0
-669 60 0
-670 882 0
-670 -883 0
-671 67 0
-671 -883 0
-672 882 0
-672 67 0
-673 881 0
-673 -882 0
-674 66 0
-674 -882 0
-675 881 0
-675 66 0
-676 64 0
-676 -881 0
-677 65 0
-677 -881 0
-678 64 0
-678 65 0
-679 59 0
-679 67 0
-680 59 0
-680 66 0
-681 59 0
-681 65 0
-682 59 0
-682 64 0
-683 879 0
-683 -880 0
-684 70 0
-684 -880 0
-685 879 0
-685 70 0
-686 68 0
-686 -879 0
-687 69 0
-687 -879 0
-688 68 0
-688 69 0
-689 878 0
-689 70 0
-690 878 0
-690 69 0
-691 878 0
-691 68 0
-692 60 0
-692 -878 0
-693 64 0
-693 -878 0
-694 60 0
-694 64 0
-695 71 0
-695 -877 0
-696 72 0
-696 -877 0
-697 71 0
-697 72 0
-698 876 0
-698 72 0
-699 876 0
-699 71 0
-700 875 0
-700 -876 0
-701 68 0
-701 -876 0
-702 875 0
-702 68 0
-703 61 0
-703 -875 0
-704 65 0
-704 -875 0
-705 61 0
-705 65 0
-706 874 0
-706 73 0
-707 873 0
-707 -874 0
-708 71 0
-708 -874 0
-709 873 0
-709 71 0
-710 872 0
-710 -873 0
-711 69 0
-711 -873 0
-712 872 0
-712 69 0
-713 62 0
-713 -872 0
-714 66 0
-714 -872 0
-715 62 0
-715 66 0
-716 870 0
-716 -871 0
-717 73 0
-717 -871 0
-718 870 0
-718 73 0
-719 869 0
-719 -870 0
-720 72 0
-720 -870 0
-721 869 0
-721 72 0
-722 868 0
-722 -869 0
-723 70 0
-723 -869 0
-724 868 0
-724 70 0
-725 63 0
-725 -868 0
-726 67 0
-726 -868 0
-727 63 0
-727 67 0
-728 906 0
-728 -907 0
-729 59 0
-729 -907 0
-730 906 0
-730 59 0
-731 905 0
-731 -906 0
-732 60 0
-732 -906 0
-733 905 0
-733 60 0
-734 904 0
-734 -905 0
-735 61 0
-735 -905 0
-736 904 0
-736 61 0
-737 63 0
-737 -904 0
-738 62 0
-738 -904 0
-739 63 0
-739 62 0
-740 903 0
-740 59 0
-741 902 0
-741 -903 0
-742 64 0
-742 -903 0
-743 902 0
-743 64 0
-744 901 0
-744 -902 0
-745 65 0
-745 -902 0
-746 901 0
-746 65 0
-747 67 0
-747 -901 0
-748 66 0
-748 -901 0
-749 67 0
-749 66 0
-750 900 0
-750 60 0
-751 900 0
-751 64 0
-752 899 0
-752 -900 0
-753 68 0
-753 -900 0
-754 899 0
-754 68 0
-755 70 0
-755 -899 0
-756 69 0
-756 -899 0
-757 70 0
-757 69 0
-758 64 0
-758 -898 0
-759 60 0
-759 -898 0
-760 64 0
-760 60 0
-761 897 0
-761 61 0
-762 897 0
-762 65 0
-763 897 0
-763 68 0
-764 72 0
-764 -897 0
-765 71 0
-765 -897 0
-766 72 0
-766 71 0
-767 895 0
-767 -896 0
-768 61 0
-768 -896 0
-769 895 0
-769 61 0
-770 68 0
-770 -895 0
-771 65 0
-771 -895 0
-772 68 0
-772 65 0
-773 73 0
-773 62 0
-774 73 0
-774 66 0
-775 73 0
-775 69 0
-776 73 0
-776 71 0
-777 893 0
-777 -894 0
-778 62 0
-778 -894 0
-779 893 0
-779 62 0
-780 892 0
-780 -893 0
-781 66 0
-781 -893 0
-782 892 0
-782 66 0
-783 71 0
-783 -892 0
-784 69 0
-784 -892 0
-785 71 0
-785 69 0
-786 890 0
-786 -891 0
-787 63 0
-787 -891 0
-788 890 0
-788 63 0
-789 889 0
-789 -890 0
-790 67 0
-790 -890 0
-791 889 0
-791 67 0
-792 888 0
-792 -889 0
-793 70 0
-793 -889 0
-794 888 0
-794 70 0
-795 73 0
-795 -888 0
-796 72 0
-796 -888 0
-797 73 0
-797 72 0
-361 1 -8 0
-361 -1 8 118 117 116 115 114 0
-361 -118 360 0
-361 -29 -1 2 118 0
-361 -117 359 0
-361 -30 -1 3 117 0
-361 -116 358 0
-361 -31 -1 4 116 0
-361 -115 357 0
-361 -32 -1 5 115 0
-361 -114 356 0
-361 -33 -1 6 114 0
-361 2 -9 119 0
-361 -2 9 123 122 121 120 0
-361 -119 355 0
-361 -29 -1 2 119 0
-361 -123 354 0
-361 -34 -2 3 123 0
-361 -122 353 0
-361 -35 -2 4 122 0
-361 -121 352 0
-361 -36 -2 5 121 0
-361 -120 351 0
-361 -37 -2 6 120 0
-361 3 -10 125 124 0
-361 -3 10 128 127 126 0
-361 -125 350 0
-361 -30 -1 3 125 0
-361 -124 349 0
-361 -34 -2 3 124 0
-361 -128 348 0
-361 -38 -3 4 128 0
-361 -127 347 0
-361 -39 -3 5 127 0
-361 -126 346 0
-361 -40 -3 6 126 0
-361 4 -11 131 130 129 0
-361 -4 11 133 132 0
-361 -131 345 0
-361 -31 -1 4 131 0
-361 -130 344 0
-361 -35 -2 4 130 0
-361 -129 343 0
-361 -38 -3 4 129 0
-361 -133 342 0
-361 -41 -4 5 133 0
-361 -132 341 0
-361 -42 -4 6 132 0
-361 5 -12 137 136 135 134 0
-361 -5 12 138 0
-361 -137 340 0
-361 -32 -1 5 137 0
-361 -136 339 0
-361 -36 -2 5 136 0
-361 -135 338 0
-361 -39 -3 5 135 0
-361 -134 337 0
-361 -41 -4 5 134 0
-361 -138 336 0
-361 -43 -5 6 138 0
-361 6 -13 143 142 141 140 139 0
-361 -6 13 0
-361 -143 335 0
-361 -33 -1 6 143 0
-361 -142 334 0
-361 -37 -2 6 142 0
-361 -141 333 0
-361 -40 -3 6 141 0
-361 -140 332 0
-361 -42 -4 6 140 0
-361 -139 331 0
-361 -43 -5 6 139 0
-361 7 -14 0
-361 -7 14 0
-361 329 330 0
-361 327 328 0
-361 325 326 0
-361 323 324 0
-361 321 322 0
-361 319 320 0
-361 317 318 0
-361 315 316 0
-361 313 314 0
-361 311 312 0
-361 309 310 0
-361 307 308 0
-361 305 306 0
-361 303 304 0
-361 301 302 0
-361 285 286 287 288 289 290 291 292 293 294 295 296 297 298 299 300 0
-362 0
-363 0
-364 0
-365 0
-366 0
-367 0
-368 0
-369 0
-370 0
-371 0
-372 0
-373 0
-374 0
-375 0
-376 0
-360 29 0
-360 1 0
-360 -2 0
-359 30 0
-359 1 0
-359 -3 0
-358 31 0
-358 1 0
-358 -4 0
-357 32 0
-357 1 0
-357 -5 0
-356 33 0
-356 1 0
-356 -6 0
-355 29 0
-355 1 0
-355 -2 0
-354 34 0
-354 2 0
-354 -3 0
-353 35 0
-353 2 0
-353 -4 0
-352 36 0
-352 2 0
-352 -5 0
-351 37 0
-351 2 0
-351 -6 0
-350 30 0
-350 1 0
-350 -3 0
-349 34 0
-349 2 0
-349 -3 0
-348 38 0
-348 3 0
-348 -4 0
-347 39 0
-347 3 0
-347 -5 0
-346 40 0
-346 3 0
-346 -6 0
-345 31 0
-345 1 0
-345 -4 0
-344 35 0
-344 2 0
-344 -4 0
-343 38 0
-343 3 0
-343 -4 0
-342 41 0
-342 4 0
-342 -5 0
-341 42 0
-341 4 0
-341 -6 0
-340 32 0
-340 1 0
-340 -5 0
-339 36 0
-339 2 0
-339 -5 0
-338 39 0
-338 3 0
-338 -5 0
-337 41 0
-337 4 0
-337 -5 0
-336 43 0
-336 5 0
-336 -6 0
-335 33 0
-335 1 0
-335 -6 0
-334 37 0
-334 2 0
-334 -6 0
-333 40 0
-333 3 0
-333 -6 0
-332 42 0
-332 4 0
-332 -6 0
-331 43 0
-331 5 0
-331 -6 0
-329 -29 -1 2 0
-330 -8 0
-330 9 0
-327 -30 -1 3 0
-328 -8 0
-328 10 0
-325 -31 -1 4 0
-326 -8 0
-326 11 0
-323 -32 -1 5 0
-324 -8 0
-324 12 0
-321 -33 -1 6 0
-322 -8 0
-322 13 0
-319 -34 -2 3 0
-320 -9 0
-320 10 0
-317 -35 -2 4 0
-318 -9 0
-318 11 0
-315 -36 -2 5 0
-316 -9 0
-316 12 0
-313 -37 -2 6 0
-314 -9 0
-314 13 0
-311 -38 -3 4 0
-312 -10 0
-312 11 0
-309 -39 -3 5 0
-310 -10 0
-310 12 0
-307 -40 -3 6 0
-308 -10 0
-308 13 0
-305 -41 -4 5 0
-306 -11 0
-306 12 0
-303 -42 -4 6 0
-304 -11 0
-304 13 0
-301 -43 -5 6 0
-302 -12 0
-302 13 0
-285 8 -15 0
-285 -8 15 842 841 840 839 838 0
-285 -842 284 0
-285 -44 -8 9 842 0
-285 -841 283 0
-285 -45 -8 10 841 0
-285 -840 282 0
-285 -46 -8 11 840 0
-285 -839 281 0
-285 -47 -8 12 839 0
-285 -838 280 0
-285 -48 -8 13 838 0
-285 9 -16 843 0
-285 -9 16 847 846 845 844 0
-285 -843 279 0
-285 -44 -8 9 843 0
-285 -847 278 0
-285 -49 -9 10 847 0
-285 -846 277 0
-285 -50 -9 11 846 0
-285 -845 276 0
-285 -51 -9 12 845 0
-285 -844 275 0
-285 -52 -9 13 844 0
-285 10 -17 849 848 0
-285 -10 17 852 851 850 0
-285 -849 274 0
-285 -45 -8 10 849 0
-285 -848 273 0
-285 -49 -9 10 848 0
-285 -852 272 0
-285 -53 -10 11 852 0
-285 -851 271 0
-285 -54 -10 12 851 0
-285 -850 270 0
-285 -55 -10 13 850 0
-285 11 -18 855 854 853 0
-285 -11 18 857 856 0
-285 -855 269 0
-285 -46 -8 11 855 0
-285 -854 268 0
-285 -50 -9 11 854 0
-285 -853 267 0
-285 -53 -10 11 853 0
-285 -857 266 0
-285 -56 -11 12 857 0
-285 -856 265 0
-285 -57 -11 13 856 0
-285 12 -19 861 860 859 858 0
-285 -12 19 862 0
-285 -861 264 0
-285 -47 -8 12 861 0
-285 -860 263 0
-285 -51 -9 12 860 0
-285 -859 262 0
-285 -54 -10 12 859 0
-285 -858 261 0
-285 -56 -11 12 858 0
-285 -862 260 0
-285 -58 -12 13 862 0
-285 13 -20 867 866 865 864 863 0
-285 -13 20 0
-285 -867 259 0
-285 -48 -8 13 867 0
-285 -866 258 0
-285 -52 -9 13 866 0
-285 -865 257 0
-285 -55 -10 13 865 0
-285 -864 256 0
-285 -57 -11 13 864 0
-285 -863 255 0
-285 -58 -12 13 863 0
-285 14 -21 0
-285 -14 21 0
-285 253 254 0
-285 251 252 0
-285 249 250 0
-285 247 248 0
-285 245 246 0
-285 243 244 0
-285 241 242 0
-285 239 240 0
-285 237 238 0
-285 235 236 0
-285 233 234 0
-285 231 232 0
-285 229 230 0
-285 227 228 0
-285 225 226 0
-285 209 210 211 212 213 214 215 216 217 218 219 220 221 222 223 224 0
-286 0
-287 0
-288 0
-289 0
-290 0
-291 0
-292 0
-293 0
-294 0
-295 0
-296 0
-297 0
-298 0
-299 0
-300 0
-284 44 0
-284 8 0
-284 -9 0
-283 45 0
-283 8 0
-283 -10 0
-282 46 0
-282 8 0
-282 -11 0
-281 47 0
-281 8 0
-281 -12 0
-280 48 0
-280 8 0
-280 -13 0
-279 44 0
-279 8 0
-279 -9 0
-278 49 0
-278 9 0
-278 -10 0
-277 50 0
-277 9 0
-277 -11 0
-276 51 0
-276 9 0
-276 -12 0
-275 52 0
-275 9 0
-275 -13 0
-274 45 0
-274 8 0
-274 -10 0
-273 49 0
-273 9 0
-273 -10 0
-272 53 0
-272 10 0
-272 -11 0
-271 54 0
-271 10 0
-271 -12 0
-270 55 0
-270 10 0
-270 -13 0
-269 46 0
-269 8 0
-269 -11 0
-268 50 0
-268 9 0
-268 -11 0
-267 53 0
-267 10 0
-267 -11 0
-266 56 0
-266 11 0
-266 -12 0
-265 57 0
-265 11 0
-265 -13 0
-264 47 0
-264 8 0
-264 -12 0
-263 51 0
-263 9 0
-263 -12 0
-262 54 0
-262 10 0
-262 -12 0
-261 56 0
-261 11 0
-261 -12 0
-260 58 0
-260 12 0
-260 -13 0
-259 48 0
-259 8 0
-259 -13 0
-258 52 0
-258 9 0
-258 -13 0
-257 55 0
-257 10 0
-257 -13 0
-256 57 0
-256 11 0
-256 -13 0
-255 58 0
-255 12 0
-255 -13 0
-253 -44 -8 9 0
-254 -15 0
-254 16 0
-251 -45 -8 10 0
-252 -15 0
-252 17 0
-249 -46 -8 11 0
-250 -15 0
-250 18 0
-247 -47 -8 12 0
-248 -15 0
-248 19 0
-245 -48 -8 13 0
-246 -15 0
-246 20 0
-243 -49 -9 10 0
-244 -16 0
-244 17 0
-241 -50 -9 11 0
-242 -16 0
-242 18 0
-239 -51 -9 12 0
-240 -16 0
-240 19 0
-237 -52 -9 13 0
-238 -16 0
-238 20 0
-235 -53 -10 11 0
-236 -17 0
-236 18 0
-233 -54 -10 12 0
-234 -17 0
-234 19 0
-231 -55 -10 13 0
-232 -17 0
-232 20 0
-229 -56 -11 12 0
-230 -18 0
-230 19 0
-227 -57 -11 13 0
-228 -18 0
-228 20 0
-225 -58 -12 13 0
-226 -19 0
-226 20 0
-209 15 -22 0
-209 -15 22 912 911 910 909 908 0
-209 -912 208 0
-209 -59 -15 16 912 0
-209 -911 207 0
-209 -60 -15 17 911 0
-209 -910 206 0
-209 -61 -15 18 910 0
-209 -909 205 0
-209 -62 -15 19 909 0
-209 -908 204 0
-209 -63 -15 20 908 0
-209 16 -23 913 0
-209 -16 23 917 916 915 914 0
-209 -913 203 0
-209 -59 -15 16 913 0
-209 -917 202 0
-209 -64 -16 17 917 0
-209 -916 201 0
-209 -65 -16 18 916 0
-209 -915 200 0
-209 -66 -16 19 915 0
-209 -914 199 0
-209 -67 -16 20 914 0
-209 17 -24 919 918 0
-209 -17 24 922 921 920 0
-209 -919 198 0
-209 -60 -15 17 919 0
-209 -918 197 0
-209 -64 -16 17 918 0
-209 -922 196 0
-209 -68 -17 18 922 0
-209 -921 195 0
-209 -69 -17 19 921 0
-209 -920 194 0
-209 -70 -17 20 920 0
-209 18 -25 925 924 923 0
-209 -18 25 927 926 0
-209 -925 193 0
-209 -61 -15 18 925 0
-209 -924 192 0
-209 -65 -16 18 924 0
-209 -923 191 0
-209 -68 -17 18 923 0
-209 -927 190 0
-209 -71 -18 19 927 0
-209 -926 189 0
-209 -72 -18 20 926 0
-209 19 -26 931 930 929 928 0
-209 -19 26 932 0
-209 -931 188 0
-209 -62 -15 19 931 0
-209 -930 187 0
-209 -66 -16 19 930 0
-209 -929 186 0
-209 -69 -17 19 929 0
-209 -928 185 0
-209 -71 -18 19 928 0
-209 -932 184 0
-209 -73 -19 20 932 0
-209 20 -27 937 936 935 934 933 0
-209 -20 27 0
-209 -937 183 0
-209 -63 -15 20 937 0
-209 -936 182 0
-209 -67 -16 20 936 0
-209 -935 181 0
-209 -70 -17 20 935 0
-209 -934 180 0
-209 -72 -18 20 934 0
-209 -933 179 0
-209 -73 -19 20 933 0
-209 21 -28 0
-209 -21 28 0
-209 177 178 0
-209 175 176 0
-209 173 174 0
-209 171 172 0
-209 169 170 0
-209 167 168 0
-209 165 166 0
-209 163 164 0
-209 161 162 0
-209 159 160 0
-209 157 158 0
-209 155 156 0
-209 153 154 0
-209 151 152 0
-209 149 150 0
-209 144 145 146 147 148 0
-210 0
-211 0
-212 0
-213 0
-214 0
-215 0
-216 0
-217 0
-218 0
-219 0
-220 0
-221 0
-222 0
-223 0
-224 0
-208 59 0
-208 15 0
-208 -16 0
-207 60 0
-207 15 0
-207 -17 0
-206 61 0
-206 15 0
-206 -18 0
-205 62 0
-205 15 0
-205 -19 0
-204 63 0
-204 15 0
-204 -20 0
-203 59 0
-203 15 0
-203 -16 0
-202 64 0
-202 16 0
-202 -17 0
-201 65 0
-201 16 0
-201 -18 0
-200 66 0
-200 16 0
-200 -19 0
-199 67 0
-199 16 0
-199 -20 0
-198 60 0
-198 15 0
-198 -17 0
-197 64 0
-197 16 0
-197 -17 0
-196 68 0
-196 17 0
-196 -18 0
-195 69 0
-195 17 0
-195 -19 0
-194 70 0
-194 17 0
-194 -20 0
-193 61 0
-193 15 0
-193 -18 0
-192 65 0
-192 16 0
-192 -18 0
-191 68 0
-191 17 0
-191 -18 0
-190 71 0
-190 18 0
-190 -19 0
-189 72 0
-189 18 0
-189 -20 0
-188 62 0
-188 15 0
-188 -19 0
-187 66 0
-187 16 0
-187 -19 0
-186 69 0
-186 17 0
-186 -19 0
-185 71 0
-185 18 0
-185 -19 0
-184 73 0
-184 19 0
-184 -20 0
-183 63 0
-183 15 0
-183 -20 0
-182 67 0
-182 16 0
-182 -20 0
-181 70 0
-181 17 0
-181 -20 0
-180 72 0
-180 18 0
-180 -20 0
-179 73 0
-179 19 0
-179 -20 0
-177 -59 -15 16 0
-178 -22 0
-178 23 0
-175 -60 -15 17 0
-176 -22 0
-176 24 0
-173 -61 -15 18 0
-174 -22 0
-174 25 0
-171 -62 -15 19 0
-172 -22 0
-172 26 0
-169 -63 -15 20 0
-170 -22 0
-170 27 0
-167 -64 -16 17 0
-168 -23 0
-168 24 0
-165 -65 -16 18 0
-166 -23 0
-166 25 0
-163 -66 -16 19 0
-164 -23 0
-164 26 0
-161 -67 -16 20 0
-162 -23 0
-162 27 0
-159 -68 -17 18 0
-160 -24 0
-160 25 0
-157 -69 -17 19 0
-158 -24 0
-158 26 0
-155 -70 -17 20 0
-156 -24 0
-156 27 0
-153 -71 -18 19 0
-154 -25 0
-154 26 0
-151 -72 -18 20 0
-152 -25 0
-152 27 0
-149 -73 -19 20 0
-150 -26 0
-150 27 0
-144 22 0
-144 -23 0
-145 23 0
-145 -24 0
-146 24 0
-146 -25 0
-147 25 0
-147 -26 0
-148 26 0
-148 -27 0
